# Node Net
281   1
2381   1
 67   1
4891   1
561   1
2870   2
4870   2
4848   2
 46   2
 59   2
1890   3
4837   3
1960   3
 40   3
 71   3
1190   4
4831   4
4839   4
1400   5
3501   5
 17   5
4411   6
 18   6
4872   6
4836   7
 25   7
4894   7
 68   8
4880   8
1120   8
4885   9
 70   9
2801   9
 65  10
3781  10
4830  10
 37  11
  6  11
 50  11
 53  12
3710  12
560  12
2521  13
2451  13
 24  13
2871  14
2940  14
 26  15
4898  15
